\ Model depots
\ LP format - for model browsing. Use MPS format to capture full model detail.
Minimize
  3500 open[0] + 9000 open[1] + 10000 open[2] + 4000 open[3] + 3000 open[4]
   + 9000 open[5] + 9000 open[6] + 3000 open[7] + 4000 open[8]
   + 10000 open[9] + 9000 open[10] + 3500 open[11]
   + 0.8333333333333334 trans_amount[0,0] + 2.25 trans_amount[0,1]
   + 0.6666666666666666 trans_amount[0,2] + 0.5 trans_amount[0,3]
   + 0.5454545454545454 trans_amount[0,4] + trans_amount[0,5]
   + 1.333333333333333 trans_amount[0,6] + 1.5 trans_amount[0,7]
   + 2 trans_amount[0,8] + 0.4666666666666667 trans_amount[0,9]
   + 0.6842105263157895 trans_amount[0,10]
   + 0.9166666666666666 trans_amount[0,11] + trans_amount[1,0]
   + 1.125 trans_amount[1,1] + 0.8 trans_amount[1,2]
   + 0.7 trans_amount[1,3] + 0.5909090909090909 trans_amount[1,4]
   + 1.1 trans_amount[1,5] + 1.555555555555556 trans_amount[1,6]
   + 1.833333333333333 trans_amount[1,7]
   + 2.666666666666667 trans_amount[1,8]
   + 0.5333333333333333 trans_amount[1,9]
   + 0.7894736842105263 trans_amount[1,10]
   + 1.083333333333333 trans_amount[1,11]
   + 1.166666666666667 trans_amount[2,0] + 1.375 trans_amount[2,1]
   + 1.066666666666667 trans_amount[2,2] + 0.8 trans_amount[2,3]
   + 0.6818181818181818 trans_amount[2,4] + 1.3 trans_amount[2,5]
   + 1.777777777777778 trans_amount[2,6]
   + 2.083333333333334 trans_amount[2,7]
   + 3.333333333333334 trans_amount[2,8]
   + 0.6666666666666666 trans_amount[2,9]
   + 0.8421052631578947 trans_amount[2,10] + 1.25 trans_amount[2,11]
   + 1.333333333333333 trans_amount[3,0] + 1.5625 trans_amount[3,1]
   + 1.333333333333333 trans_amount[3,2] + trans_amount[3,3]
   + 0.7272727272727273 trans_amount[3,4] + 1.5 trans_amount[3,5]
   + 2.111111111111111 trans_amount[3,6] + 2.5 trans_amount[3,7]
   + 4.333333333333333 trans_amount[3,8] + 9.999999e+06 trans_amount[3,9]
   + 9.999999e+06 trans_amount[3,10] + 9.999999e+06 trans_amount[3,11]
   + 1.583333333333333 trans_amount[4,0] + 1.875 trans_amount[4,1]
   + 1.733333333333333 trans_amount[4,2] + 9.999999e+06 trans_amount[4,3]
   + 9.999999e+06 trans_amount[4,4] + 9.999999e+06 trans_amount[4,5]
   + 2.222222222222222 trans_amount[4,6] + 3 trans_amount[4,7]
   + 5 trans_amount[4,8] + 9.999999e+06 trans_amount[4,9]
   + 9.999999e+06 trans_amount[4,10] + 9.999999e+06 trans_amount[4,11]
   + 1.666666666666667 trans_amount[5,0] + 2.25 trans_amount[5,1]
   + 2 trans_amount[5,2] + 9.999999e+06 trans_amount[5,3]
   + 9.999999e+06 trans_amount[5,4] + 9.999999e+06 trans_amount[5,5]
   + 1.111111111111111 trans_amount[5,6]
   + 1.333333333333333 trans_amount[5,7]
   + 1.666666666666667 trans_amount[5,8]
   + 0.3333333333333333 trans_amount[5,9]
   + 0.631578947368421 trans_amount[5,10]
   + 0.8333333333333334 trans_amount[5,11]
   + 0.8333333333333334 trans_amount[6,0] + trans_amount[6,1]
   + 0.6666666666666666 trans_amount[6,2] + 0.5 trans_amount[6,3]
   + 0.5454545454545454 trans_amount[6,4] + trans_amount[6,5]
   + 1.333333333333333 trans_amount[6,6] + 1.5 trans_amount[6,7]
   + 2 trans_amount[6,8] + 0.4666666666666667 trans_amount[6,9]
   + 0.6842105263157895 trans_amount[6,10]
   + 0.8333333333333334 trans_amount[6,11] + trans_amount[7,0]
   + 1.125 trans_amount[7,1] + 0.8 trans_amount[7,2]
   + 0.7 trans_amount[7,3] + 0.5909090909090909 trans_amount[7,4]
   + 1.1 trans_amount[7,5] + 1.555555555555556 trans_amount[7,6]
   + 1.833333333333333 trans_amount[7,7]
   + 2.666666666666667 trans_amount[7,8]
   + 0.5333333333333333 trans_amount[7,9]
   + 0.7578947368421053 trans_amount[7,10]
   + 1.083333333333333 trans_amount[7,11]
   + 1.166666666666667 trans_amount[8,0] + 1.375 trans_amount[8,1]
   + 1.066666666666667 trans_amount[8,2] + 0.8 trans_amount[8,3]
   + 0.6818181818181818 trans_amount[8,4] + 1.3 trans_amount[8,5]
   + 1.777777777777778 trans_amount[8,6]
   + 2.083333333333334 trans_amount[8,7]
   + 3.333333333333334 trans_amount[8,8]
   + 0.6666666666666666 trans_amount[8,9]
   + 0.8421052631578947 trans_amount[8,10] + 1.25 trans_amount[8,11]
   + 1.333333333333333 trans_amount[9,0] + 1.5625 trans_amount[9,1]
   + 1.333333333333333 trans_amount[9,2] + trans_amount[9,3]
   + 0.7272727272727273 trans_amount[9,4] + 1.5 trans_amount[9,5]
   + 2.111111111111111 trans_amount[9,6] + 2.5 trans_amount[9,7]
   + 4.333333333333333 trans_amount[9,8] + 9.999999e+06 trans_amount[9,9]
   + 9.999999e+06 trans_amount[9,10] + 9.999999e+06 trans_amount[9,11]
   + 1.583333333333333 trans_amount[10,0] + 1.875 trans_amount[10,1]
   + 1.733333333333333 trans_amount[10,2] + 9.999999e+06 trans_amount[10,3]
   + 9.999999e+06 trans_amount[10,4] + 9.999999e+06 trans_amount[10,5]
   + 2.222222222222222 trans_amount[10,6] + 3 trans_amount[10,7]
   + 5 trans_amount[10,8] + 9.999999e+06 trans_amount[10,9]
   + 9.999999e+06 trans_amount[10,10] + 9.999999e+06 trans_amount[10,11]
   + 1.666666666666667 trans_amount[11,0] + 2.25 trans_amount[11,1]
   + 2 trans_amount[11,2] + 9.999999e+06 trans_amount[11,3]
   + 9.999999e+06 trans_amount[11,4] + 9.999999e+06 trans_amount[11,5]
   + 1.111111111111111 trans_amount[11,6]
   + 1.333333333333333 trans_amount[11,7]
   + 1.666666666666667 trans_amount[11,8]
   + 0.3333333333333333 trans_amount[11,9]
   + 0.631578947368421 trans_amount[11,10]
   + 0.8333333333333334 trans_amount[11,11]
Subject To
 R0: - 300 open[0] + trans_amount[0,0] + trans_amount[1,0]
   + trans_amount[2,0] + trans_amount[3,0] + trans_amount[4,0]
   + trans_amount[5,0] + trans_amount[6,0] + trans_amount[7,0]
   + trans_amount[8,0] + trans_amount[9,0] + trans_amount[10,0]
   + trans_amount[11,0] <= 0
 R1: - 250 open[1] + trans_amount[0,1] + trans_amount[1,1]
   + trans_amount[2,1] + trans_amount[3,1] + trans_amount[4,1]
   + trans_amount[5,1] + trans_amount[6,1] + trans_amount[7,1]
   + trans_amount[8,1] + trans_amount[9,1] + trans_amount[10,1]
   + trans_amount[11,1] <= 0
 R2: - 100 open[2] + trans_amount[0,2] + trans_amount[1,2]
   + trans_amount[2,2] + trans_amount[3,2] + trans_amount[4,2]
   + trans_amount[5,2] + trans_amount[6,2] + trans_amount[7,2]
   + trans_amount[8,2] + trans_amount[9,2] + trans_amount[10,2]
   + trans_amount[11,2] <= 0
 R3: - 180 open[3] + trans_amount[0,3] + trans_amount[1,3]
   + trans_amount[2,3] + trans_amount[3,3] + trans_amount[4,3]
   + trans_amount[5,3] + trans_amount[6,3] + trans_amount[7,3]
   + trans_amount[8,3] + trans_amount[9,3] + trans_amount[10,3]
   + trans_amount[11,3] <= 0
 R4: - 275 open[4] + trans_amount[0,4] + trans_amount[1,4]
   + trans_amount[2,4] + trans_amount[3,4] + trans_amount[4,4]
   + trans_amount[5,4] + trans_amount[6,4] + trans_amount[7,4]
   + trans_amount[8,4] + trans_amount[9,4] + trans_amount[10,4]
   + trans_amount[11,4] <= 0
 R5: - 300 open[5] + trans_amount[0,5] + trans_amount[1,5]
   + trans_amount[2,5] + trans_amount[3,5] + trans_amount[4,5]
   + trans_amount[5,5] + trans_amount[6,5] + trans_amount[7,5]
   + trans_amount[8,5] + trans_amount[9,5] + trans_amount[10,5]
   + trans_amount[11,5] <= 0
 R6: - 200 open[6] + trans_amount[0,6] + trans_amount[1,6]
   + trans_amount[2,6] + trans_amount[3,6] + trans_amount[4,6]
   + trans_amount[5,6] + trans_amount[6,6] + trans_amount[7,6]
   + trans_amount[8,6] + trans_amount[9,6] + trans_amount[10,6]
   + trans_amount[11,6] <= 0
 R7: - 220 open[7] + trans_amount[0,7] + trans_amount[1,7]
   + trans_amount[2,7] + trans_amount[3,7] + trans_amount[4,7]
   + trans_amount[5,7] + trans_amount[6,7] + trans_amount[7,7]
   + trans_amount[8,7] + trans_amount[9,7] + trans_amount[10,7]
   + trans_amount[11,7] <= 0
 R8: - 270 open[8] + trans_amount[0,8] + trans_amount[1,8]
   + trans_amount[2,8] + trans_amount[3,8] + trans_amount[4,8]
   + trans_amount[5,8] + trans_amount[6,8] + trans_amount[7,8]
   + trans_amount[8,8] + trans_amount[9,8] + trans_amount[10,8]
   + trans_amount[11,8] <= 0
 R9: - 250 open[9] + trans_amount[0,9] + trans_amount[1,9]
   + trans_amount[2,9] + trans_amount[3,9] + trans_amount[4,9]
   + trans_amount[5,9] + trans_amount[6,9] + trans_amount[7,9]
   + trans_amount[8,9] + trans_amount[9,9] + trans_amount[10,9]
   + trans_amount[11,9] <= 0
 R10: - 230 open[10] + trans_amount[0,10] + trans_amount[1,10]
   + trans_amount[2,10] + trans_amount[3,10] + trans_amount[4,10]
   + trans_amount[5,10] + trans_amount[6,10] + trans_amount[7,10]
   + trans_amount[8,10] + trans_amount[9,10] + trans_amount[10,10]
   + trans_amount[11,10] <= 0
 R11: - 180 open[11] + trans_amount[0,11] + trans_amount[1,11]
   + trans_amount[2,11] + trans_amount[3,11] + trans_amount[4,11]
   + trans_amount[5,11] + trans_amount[6,11] + trans_amount[7,11]
   + trans_amount[8,11] + trans_amount[9,11] + trans_amount[10,11]
   + trans_amount[11,11] <= 0
 Demand[0]: trans_amount[0,0] + trans_amount[0,1] + trans_amount[0,2]
   + trans_amount[0,3] + trans_amount[0,4] + trans_amount[0,5]
   + trans_amount[0,6] + trans_amount[0,7] + trans_amount[0,8]
   + trans_amount[0,9] + trans_amount[0,10] + trans_amount[0,11] = 120
 Demand[1]: trans_amount[1,0] + trans_amount[1,1] + trans_amount[1,2]
   + trans_amount[1,3] + trans_amount[1,4] + trans_amount[1,5]
   + trans_amount[1,6] + trans_amount[1,7] + trans_amount[1,8]
   + trans_amount[1,9] + trans_amount[1,10] + trans_amount[1,11] = 80
 Demand[2]: trans_amount[2,0] + trans_amount[2,1] + trans_amount[2,2]
   + trans_amount[2,3] + trans_amount[2,4] + trans_amount[2,5]
   + trans_amount[2,6] + trans_amount[2,7] + trans_amount[2,8]
   + trans_amount[2,9] + trans_amount[2,10] + trans_amount[2,11] = 75
 Demand[3]: trans_amount[3,0] + trans_amount[3,1] + trans_amount[3,2]
   + trans_amount[3,3] + trans_amount[3,4] + trans_amount[3,5]
   + trans_amount[3,6] + trans_amount[3,7] + trans_amount[3,8]
   + trans_amount[3,9] + trans_amount[3,10] + trans_amount[3,11] = 100
 Demand[4]: trans_amount[4,0] + trans_amount[4,1] + trans_amount[4,2]
   + trans_amount[4,3] + trans_amount[4,4] + trans_amount[4,5]
   + trans_amount[4,6] + trans_amount[4,7] + trans_amount[4,8]
   + trans_amount[4,9] + trans_amount[4,10] + trans_amount[4,11] = 110
 Demand[5]: trans_amount[5,0] + trans_amount[5,1] + trans_amount[5,2]
   + trans_amount[5,3] + trans_amount[5,4] + trans_amount[5,5]
   + trans_amount[5,6] + trans_amount[5,7] + trans_amount[5,8]
   + trans_amount[5,9] + trans_amount[5,10] + trans_amount[5,11] = 100
 Demand[6]: trans_amount[6,0] + trans_amount[6,1] + trans_amount[6,2]
   + trans_amount[6,3] + trans_amount[6,4] + trans_amount[6,5]
   + trans_amount[6,6] + trans_amount[6,7] + trans_amount[6,8]
   + trans_amount[6,9] + trans_amount[6,10] + trans_amount[6,11] = 90
 Demand[7]: trans_amount[7,0] + trans_amount[7,1] + trans_amount[7,2]
   + trans_amount[7,3] + trans_amount[7,4] + trans_amount[7,5]
   + trans_amount[7,6] + trans_amount[7,7] + trans_amount[7,8]
   + trans_amount[7,9] + trans_amount[7,10] + trans_amount[7,11] = 60
 Demand[8]: trans_amount[8,0] + trans_amount[8,1] + trans_amount[8,2]
   + trans_amount[8,3] + trans_amount[8,4] + trans_amount[8,5]
   + trans_amount[8,6] + trans_amount[8,7] + trans_amount[8,8]
   + trans_amount[8,9] + trans_amount[8,10] + trans_amount[8,11] = 30
 Demand[9]: trans_amount[9,0] + trans_amount[9,1] + trans_amount[9,2]
   + trans_amount[9,3] + trans_amount[9,4] + trans_amount[9,5]
   + trans_amount[9,6] + trans_amount[9,7] + trans_amount[9,8]
   + trans_amount[9,9] + trans_amount[9,10] + trans_amount[9,11] = 150
 Demand[10]: trans_amount[10,0] + trans_amount[10,1] + trans_amount[10,2]
   + trans_amount[10,3] + trans_amount[10,4] + trans_amount[10,5]
   + trans_amount[10,6] + trans_amount[10,7] + trans_amount[10,8]
   + trans_amount[10,9] + trans_amount[10,10] + trans_amount[10,11] = 95
 Demand[11]: trans_amount[11,0] + trans_amount[11,1] + trans_amount[11,2]
   + trans_amount[11,3] + trans_amount[11,4] + trans_amount[11,5]
   + trans_amount[11,6] + trans_amount[11,7] + trans_amount[11,8]
   + trans_amount[11,9] + trans_amount[11,10] + trans_amount[11,11] = 120
Bounds
Binaries
 open[0] open[1] open[2] open[3] open[4] open[5] open[6] open[7] open[8]
 open[9] open[10] open[11]
End
